c Mesh Graph
c 10 Rows, 10 columns, capacities in range [0, 100]
p max 102 290
n 1 s
n 102 t
a 1 11 300
a 1 10 300
a 1 9 300
a 1 8 300
a 1 7 300
a 1 6 300
a 1 5 300
a 1 4 300
a 1 3 300
a 1 2 300
a 2 13 27
a 2 12 71
a 2 21 20
a 3 14 69
a 3 13 40
a 3 12 24
a 4 15 97
a 4 14 78
a 4 13 49
a 5 16 88
a 5 15 28
a 5 14 70
a 6 17 6
a 6 16 54
a 6 15 2
a 7 18 94
a 7 17 3
a 7 16 40
a 8 19 80
a 8 18 58
a 8 17 3
a 9 20 45
a 9 19 23
a 9 18 42
a 10 21 14
a 10 20 69
a 10 19 89
a 11 12 90
a 11 21 72
a 11 20 58
a 12 23 12
a 12 22 91
a 12 31 41
a 13 24 51
a 13 23 66
a 13 22 68
a 14 25 80
a 14 24 14
a 14 23 36
a 15 26 8
a 15 25 35
a 15 24 84
a 16 27 61
a 16 26 36
a 16 25 23
a 17 28 15
a 17 27 27
a 17 26 29
a 18 29 72
a 18 28 82
a 18 27 22
a 19 30 46
a 19 29 23
a 19 28 54
a 20 31 15
a 20 30 63
a 20 29 50
a 21 22 86
a 21 31 72
a 21 30 63
a 22 33 28
a 22 32 13
a 22 41 5
a 23 34 93
a 23 33 32
a 23 32 16
a 24 35 58
a 24 34 19
a 24 33 19
a 25 36 92
a 25 35 55
a 25 34 98
a 26 37 79
a 26 36 77
a 26 35 5
a 27 38 58
a 27 37 5
a 27 36 18
a 28 39 39
a 28 38 79
a 28 37 84
a 29 40 13
a 29 39 32
a 29 38 56
a 30 41 75
a 30 40 81
a 30 39 1
a 31 32 46
a 31 41 95
a 31 40 67
a 32 43 10
a 32 42 99
a 32 51 52
a 33 44 41
a 33 43 67
a 33 42 31
a 34 45 60
a 34 44 37
a 34 43 75
a 35 46 66
a 35 45 34
a 35 44 32
a 36 47 42
a 36 46 91
a 36 45 75
a 37 48 47
a 37 47 60
a 37 46 6
a 38 49 77
a 38 48 43
a 38 47 63
a 39 50 8
a 39 49 50
a 39 48 53
a 40 51 40
a 40 50 3
a 40 49 65
a 41 42 34
a 41 51 69
a 41 50 91
a 42 53 85
a 42 52 73
a 42 61 88
a 43 54 3
a 43 53 55
a 43 52 98
a 44 55 39
a 44 54 30
a 44 53 90
a 45 56 72
a 45 55 13
a 45 54 1
a 46 57 14
a 46 56 40
a 46 55 66
a 47 58 25
a 47 57 45
a 47 56 60
a 48 59 68
a 48 58 59
a 48 57 58
a 49 60 17
a 49 59 11
a 49 58 34
a 50 61 71
a 50 60 27
a 50 59 93
a 51 52 92
a 51 61 69
a 51 60 32
a 52 63 64
a 52 62 56
a 52 71 17
a 53 64 18
a 53 63 5
a 53 62 53
a 54 65 47
a 54 64 47
a 54 63 55
a 55 66 12
a 55 65 99
a 55 64 93
a 56 67 51
a 56 66 65
a 56 65 17
a 57 68 95
a 57 67 76
a 57 66 82
a 58 69 5
a 58 68 33
a 58 67 7
a 59 70 67
a 59 69 66
a 59 68 26
a 60 71 93
a 60 70 58
a 60 69 94
a 61 62 61
a 61 71 41
a 61 70 65
a 62 73 68
a 62 72 9
a 62 81 56
a 63 74 25
a 63 73 62
a 63 72 71
a 64 75 71
a 64 74 68
a 64 73 88
a 65 76 69
a 65 75 13
a 65 74 87
a 66 77 85
a 66 76 81
a 66 75 98
a 67 78 60
a 67 77 62
a 67 76 100
a 68 79 92
a 68 78 68
a 68 77 94
a 69 80 9
a 69 79 93
a 69 78 50
a 70 81 66
a 70 80 87
a 70 79 16
a 71 72 58
a 71 81 3
a 71 80 60
a 72 83 67
a 72 82 58
a 72 91 72
a 73 84 80
a 73 83 28
a 73 82 39
a 74 85 47
a 74 84 67
a 74 83 63
a 75 86 59
a 75 85 5
a 75 84 85
a 76 87 39
a 76 86 54
a 76 85 54
a 77 88 53
a 77 87 53
a 77 86 90
a 78 89 72
a 78 88 98
a 78 87 50
a 79 90 17
a 79 89 47
a 79 88 93
a 80 91 55
a 80 90 14
a 80 89 2
a 81 82 57
a 81 91 73
a 81 90 19
a 82 93 66
a 82 92 44
a 82 101 77
a 83 94 45
a 83 93 35
a 83 92 43
a 84 95 63
a 84 94 49
a 84 93 22
a 85 96 68
a 85 95 34
a 85 94 20
a 86 97 73
a 86 96 39
a 86 95 79
a 87 98 26
a 87 97 28
a 87 96 69
a 88 99 75
a 88 98 29
a 88 97 73
a 89 100 22
a 89 99 74
a 89 98 45
a 90 101 35
a 90 100 75
a 90 99 61
a 91 92 60
a 91 101 93
a 91 100 67
a 92 102 300
a 93 102 300
a 94 102 300
a 95 102 300
a 96 102 300
a 97 102 300
a 98 102 300
a 99 102 300
a 100 102 300
a 101 102 300
